c b=7,c=1921
p cnf 25 183
7 -14 0
1 2 4 5 6 7 -21 0
1 2 3 5 6 7 -22 0
2 3 4 6 7 -23 0
1 3 4 5 7 -24 0
-7 14 0
1 2 4 5 6 -7 21 0
1 2 4 -7 22 0
1 2 4 5 -7 23 0
1 2 4 5 6 -7 24 0
6 -13 0
1 3 4 5 6 -20 0
1 2 4 5 6 -25 0
1 3 -6 7 21 0
7 -25 0
1 3 -6 -7 -21 0
-6 -7 25 0
-6 13 0
1 3 4 5 -6 20 0
1 3 4 -6 22 0
1 3 4 5 -6 23 0
1 3 4 5 -6 -24 0
5 -12 0
2 3 4 5 -19 0
2 3 -5 7 21 0
2 3 -5 -7 -21 0
-5 -7 25 0
2 -5 6 20 0
-5 6 -24 0
2 -5 -6 -20 0
-5 -6 24 0
-5 12 0
2 3 4 -5 19 0
2 3 4 -5 22 0
2 3 4 -5 -23 0
4 -11 0
1 2 3 4 -18 0
1 2 3 -4 7 21 0
1 2 3 -4 -7 -21 0
-4 -7 25 0
1 2 -4 6 20 0
-4 6 -24 0
1 2 -4 -6 -20 0
-4 -6 24 0
1 -4 5 19 0
-4 5 -23 0
1 -4 -5 -19 0
-4 -5 23 0
-4 11 0
1 2 3 -4 18 0
1 2 3 -4 -22 0
3 -10 0
1 2 3 -17 0
1 2 -3 7 -21 0
-3 4 7 -22 0
-3 5 7 -23 0
-3 6 7 -24 0
1 2 -3 -7 21 0
1 2 -3 6 20 0
-3 -6 7 24 0
1 2 4 5 -6 -7 -24 0
1 2 -3 -6 -20 0
1 -3 5 19 0
-3 -5 7 23 0
2 4 -5 -7 -23 0
1 -3 -5 -19 0
-3 4 18 0
-3 -4 7 22 0
1 2 -4 -7 -22 0
-3 -4 -18 0
-3 10 0
1 2 -3 17 0
2 -9 0
1 2 -16 0
-2 3 6 7 -21 0
-2 4 6 7 -22 0
-2 5 6 7 -23 0
-2 3 6 -7 21 0
3 4 -7 22 0
3 4 5 -7 23 0
3 4 5 6 -7 24 0
1 -2 6 -20 0
3 4 5 6 -25 0
1 -2 -6 20 0
1 -2 5 19 0
-2 -5 6 7 23 0
3 4 -5 -7 -23 0
3 4 -5 -6 -23 0
1 -2 -5 -19 0
-2 4 18 0
-2 -4 6 7 22 0
3 -4 -7 -22 0
1 3 -4 -6 -22 0
-2 -4 -18 0
-2 3 17 0
-2 -3 6 7 21 0
-2 -3 6 -7 -21 0
-2 -3 -7 25 0
-2 -3 4 6 -22 0
-2 -3 5 6 -23 0
-2 -3 6 -24 0
1 -3 -6 7 -21 0
1 -3 -6 -7 21 0
1 4 -6 -7 22 0
1 4 5 -6 -7 23 0
1 -2 -3 4 5 -7 -24 0
-2 -3 -5 6 23 0
1 4 -5 -6 -7 -23 0
-2 -3 -4 6 22 0
1 -4 -6 -7 -22 0
-2 -3 -17 0
-2 9 0
1 -2 16 0
1 -8 0
1 -15 0
-1 3 5 6 7 -21 0
-1 4 5 6 7 -22 0
2 3 4 5 7 -24 0
-1 3 5 6 -7 21 0
-1 2 5 6 -20 0
2 3 -6 7 21 0
2 3 -6 -7 -21 0
-1 2 5 -6 20 0
2 3 4 -6 22 0
2 3 4 5 -6 23 0
2 3 4 5 -6 -24 0
-1 5 -19 0
-1 -5 19 0
-1 4 18 0
-1 -4 5 6 7 22 0
2 3 -4 -6 -22 0
2 3 -4 -5 -22 0
-1 -4 -18 0
-1 3 17 0
-1 -3 5 6 7 21 0
-1 -3 5 6 -7 -21 0
-1 -3 -7 25 0
-1 -3 4 5 6 -22 0
-1 -3 5 6 -23 0
-1 -3 6 -24 0
2 -3 -6 7 -21 0
2 -3 -6 -7 21 0
2 4 -6 -7 22 0
2 4 5 -6 -7 23 0
-1 2 -3 4 5 -7 -24 0
2 -3 -5 7 -21 0
2 -3 -5 -7 21 0
2 4 -5 -7 22 0
-1 -3 -4 5 6 22 0
2 -4 -6 -7 -22 0
2 -4 -5 -7 -22 0
-1 -3 -17 0
-1 2 16 0
-1 -2 3 5 7 -21 0
-1 -2 4 5 7 -22 0
-1 -2 5 7 -23 0
-1 -2 6 7 -24 0
-1 -2 3 5 -7 21 0
-1 -2 5 6 20 0
-1 -2 -6 7 24 0
3 4 5 -6 -7 -24 0
-1 -2 5 -6 -20 0
-2 -5 6 -20 0
3 -5 -6 7 21 0
3 -5 -6 -7 -21 0
-2 -5 -6 20 0
3 4 -5 -6 22 0
-1 -2 -4 5 7 22 0
3 -4 -5 -6 -22 0
-1 -2 -3 5 7 21 0
-1 -2 -3 5 -7 -21 0
-1 -2 -3 -6 24 0
-1 -2 -3 4 5 -22 0
-1 -2 -3 5 -23 0
-3 -5 -6 7 -21 0
-3 -5 -6 -7 21 0
4 -5 -6 -7 22 0
-1 -2 -3 4 -6 -7 -23 0
-1 -2 -3 -4 5 22 0
-4 -5 -6 -7 -22 0
-1 -2 -16 0
-1 8 0
-1 15 0
